name	xcoord	ycoord	start	end	service
0	0	0	0	2000	0
1	-34	-68	1501	1592	13
2	-4	-75	28	64	9
3	-18	88	1254	1431	13
4	-82	-45	60	140	7
5	-63	82	1568	1739	12
6	-20	14	1417	1470	22
7	27	-20	127	329	15
8	99	-48	411	581	18
9	-73	-85	1300	1420	19
10	31	-24	241	286	24
11	5	-79	92	269	16
12	-61	38	416	555	21
13	75	-6	31	131	14
14	-98	52	1282	1362	1
15	-29	-76	1601	1707	18
16	-88	-66	1418	1572	0
17	2	36	579	713	24
18	81	-32	1582	1725	6
19	-30	-1	71	180	17
20	68	-82	347	424	12
21	85	-95	1411	1553	7
22	27	63	1587	1616	1
23	2	-94	1644	1818	24
24	41	47	1516	1620	21
25	93	21	574	753	13
26	62	-83	806	974	15
27	-36	57	326	454	10
28	-43	0	710	919	13
29	-38	20	1775	1840	22
30	-32	-80	424	638	18
